Version identifier: 12.10.0.0 | 2019-11-26 | 843d4de
CPXPARAM_WorkMem                                 16384
CPXPARAM_MIP_Limits_TreeMemory                   24576
Tried aggregator 2 times.
Aggregator did 75 substitutions.
Reduced MIP has 319 rows, 360 columns, and 1504 nonzeros.
Reduced MIP has 360 binaries, 0 generals, 0 SOSs, and 0 indicators.
Presolve time = 0,00 sec. (1,46 ticks)
Found incumbent of value 1084,000000 after 0,01 sec. (2,25 ticks)
Probing time = 0,00 sec. (0,74 ticks)
Tried aggregator 1 time.
Detecting symmetries...
MIP Presolve eliminated 60 rows and 0 columns.
MIP Presolve added 120 rows and 0 columns.
Reduced MIP has 379 rows, 360 columns, and 1564 nonzeros.
Reduced MIP has 360 binaries, 0 generals, 0 SOSs, and 0 indicators.
Presolve time = 0,00 sec. (1,99 ticks)
Probing time = 0,00 sec. (0,72 ticks)
Clique table members: 1099.
MIP emphasis: balance optimality and feasibility.
MIP search method: dynamic search.
Parallel mode: deterministic, using up to 16 threads.
Root relaxation solution time = 0,01 sec. (1,85 ticks)

        Nodes                                         Cuts/
   Node  Left     Objective  IInf  Best Integer    Best Bound    ItCnt     Gap

*     0+    0                         1084,0000        0,0000           100,00%
*     0+    0                          660,0000        0,0000           100,00%
      0     0      271,0000   264      660,0000      271,0000      134   58,94%
      0     0      273,0937   264      660,0000     Cuts: 194      247   58,62%
      0     0      278,3433   264      660,0000     Cuts: 179      300   57,83%
      0     0      279,4399   264      660,0000     Cuts: 135      327   57,66%
      0     0      279,6485   264      660,0000       Cuts: 4      352   57,63%
      0     0      280,0700   264      660,0000       Cuts: 8      372   57,57%
*     0+    0                          659,0000      280,0700            57,50%
*     0+    0                          593,0000      280,0700            52,77%
      0     0      326,6143   264      593,0000     Cuts: 194      787   44,63%
      0     0      330,6153   264      593,0000     Cuts: 130      872   44,25%
      0     0      330,6789   264      593,0000       Cuts: 2      880   44,24%
      0     0      330,7761   264      593,0000   ZeroHalf: 2      896   44,22%
      0     0      331,4522   264      593,0000   ZeroHalf: 2      929   44,11%
      0     0      331,4996   264      593,0000      Cuts: 34      936   44,10%
      0     0      331,5151   264      593,0000   ZeroHalf: 1      937   44,10%
      0     0      331,6604   264      593,0000   ZeroHalf: 2      962   44,07%
      0     0      331,7279   264      593,0000      Cuts: 32      975   44,06%
      0     0      331,7862   264      593,0000   ZeroHalf: 2      981   44,05%
      0     0      331,7934   264      593,0000   ZeroHalf: 1      982   44,05%
      0     2      331,7934   333      593,0000      331,7934      982   44,05%
Elapsed time = 0,58 sec. (341,83 ticks, tree = 0,02 MB, solutions = 4)
   1769  1021      578,8528    98      593,0000      415,5126    75055   29,93%
   4286  2288      585,0750   140      593,0000      526,5690   169159   11,20%

Performing restart 1

Repeating presolve.
Tried aggregator 2 times.
MIP Presolve eliminated 53 rows and 25 columns.
MIP Presolve added 24 rows and 0 columns.
MIP Presolve modified 48 coefficients.
Aggregator did 12 substitutions.
Reduced MIP has 338 rows, 320 columns, and 1360 nonzeros.
Reduced MIP has 320 binaries, 0 generals, 0 SOSs, and 0 indicators.
Presolve time = 0,00 sec. (1,99 ticks)
Tried aggregator 1 time.
Reduced MIP has 338 rows, 320 columns, and 1360 nonzeros.
Reduced MIP has 320 binaries, 0 generals, 0 SOSs, and 0 indicators.
Presolve time = 0,00 sec. (1,11 ticks)
Represolve time = 0,02 sec. (8,00 ticks)
   4479     0      335,2263   318      593,0000       Cuts: 4   195833   10,43%
   4479     0      336,9699   318      593,0000       Cuts: 8   195877   10,43%
   4479     0      337,5631   318      593,0000       Cuts: 6   195930   10,43%
   4479     0      342,2840   318      593,0000       Cuts: 8   196023   10,43%
   4479     2      342,2840   318      593,0000      531,1700   196023   10,43%
   4627    34      505,6508   169      593,0000      531,1700   200130   10,43%
   6699  1456      554,5833    32      593,0000      531,1700   270535   10,43%
   8915  3072      578,0989   122      593,0000      531,1700   326463   10,43%

Performing restart 2

Repeating presolve.
Tried aggregator 1 time.
Reduced MIP has 338 rows, 320 columns, and 1360 nonzeros.
Reduced MIP has 320 binaries, 0 generals, 0 SOSs, and 0 indicators.
Presolve time = 0,00 sec. (0,83 ticks)
Tried aggregator 1 time.
Reduced MIP has 338 rows, 320 columns, and 1360 nonzeros.
Reduced MIP has 320 binaries, 0 generals, 0 SOSs, and 0 indicators.
Presolve time = 0,00 sec. (1,11 ticks)
Represolve time = 0,02 sec. (11,05 ticks)
  10467     0      345,6151   317      593,0000       Cuts: 8   379357   10,43%
  10467     0      347,0151   317      593,0000       Cuts: 8   379430   10,43%
  10467     0      347,8393   317      593,0000       Cuts: 4   379498   10,43%
  10467     0      349,4484   317      593,0000       Cuts: 5   379567   10,43%
  10467     0      351,4022   317      593,0000      Cuts: 12   379686   10,43%
  10467     0      352,7831   317      593,0000      Cuts: 16   379773   10,43%
  10467     2      352,7831   319      593,0000      531,1700   379773   10,43%
  13197  1837        cutoff            593,0000      531,1700   425249   10,43%
  15408  3068      560,6360   183      593,0000      531,1700   490893   10,43%
  24889  2544        cutoff            593,0000      575,2614   753428    2,99%
Elapsed time = 5,14 sec. (3937,37 ticks, tree = 8,01 MB, solutions = 4)

Clique cuts applied:  41
Cover cuts applied:  601
Flow cuts applied:  13
Mixed integer rounding cuts applied:  83
Zero-half cuts applied:  8
Gomory fractional cuts applied:  55

Root node processing (before b&c):
  Real time             =    0,58 sec. (341,36 ticks)
Parallel b&c, 16 threads:
  Real time             =    5,12 sec. (3714,12 ticks)
  Sync time (average)   =    1,49 sec.
  Wait time (average)   =    0,01 sec.
                          ------------
Total (root+branch&cut) =    5,70 sec. (4055,48 ticks)
